100 94705

 930 601
433 815
412 918
467 203
599 417
621 416
992 448
909 512
737 85
994 167
993 384
248 468
581 72
120 810
67 997
573 521
956 793
327 473
920 993
703 258
470 275
493 750
701 20
663 490
286 745
956 490
914 733
608 326
312 529
309 892
775 89
97 486
965 708
113 350
988 84
637 387
456 87
463 307
948 850
132 154
930 440
965 740
929 960
121 264
197 977
806 735
482 421
634 493
794 633
897 993
772 411
39 173
566 4
512 854
474 640
161 986
289 992
200 472
788 110
528 867
917 37
685 992
503 583
248 801
383 31
218 951
87 381
82 268
62 11
799 344
500 840
42 544
12 569
833 166
746 700
841 342
643 482
115 19
218 628
649 980
106 184
691 782
528 545
472 10
754 592
846 192
893 320
387 702
226 580
481 475
754 860
408 637
457 427
653 848
898 59
711 436
624 97
639 496
21 787
659 661
